multiobj/instances/uniform/Ter.5.2.1.00.2.in
5 2
0 468 183 274 334 
468 0 166 343 169 
183 166 0 751 345 
274 343 751 0 397 
334 169 345 397 0 
0 933 958 601 59 
933 0 703 709 183 
958 703 0 944 572 
601 709 944 0 896 
59 183 572 896 0 
0 933 958 601 59 
933 0 703 709 183 
958 703 0 944 572 
601 709 944 0 896 
59 183 572 896 0 
