multiobj/solutions/Ter.5.2.1.00.2.out
1 2
2 0 1 4 3 
3817634 3817634 
